
n_res = 8;
rcap = [22, 21, 24, 22, 1468, 1553, 1522, 1504];
rtype = [1, 1, 1, 1, 2, 2, 2, 2];
n_tasks = 100;
modes =  [{1, 2, 3, 4, 5, 6, 7, 8, 9}, {10, 11, 12, 13, 14, 15, 16, 17, 18}, {19, 20, 21, 22, 23, 24, 25, 26, 27}, {28, 29, 30, 31, 32, 33, 34, 35, 36}, {37, 38, 39, 40, 41, 42, 43, 44, 45}, {46, 47, 48, 49, 50, 51, 52, 53, 54}, {55, 56, 57, 58, 59, 60, 61, 62, 63}, {64, 65, 66, 67, 68, 69, 70, 71, 72}, {73, 74, 75, 76, 77, 78, 79, 80, 81}, {82, 83, 84, 85, 86, 87, 88, 89, 90}, {91, 92, 93, 94, 95, 96, 97, 98, 99}, {100, 101, 102, 103, 104, 105, 106, 107, 108}, {109, 110, 111, 112, 113, 114, 115, 116, 117}, {118, 119, 120, 121, 122, 123, 124, 125, 126}, {127, 128, 129, 130, 131, 132, 133, 134, 135}, {136, 137, 138, 139, 140, 141, 142, 143, 144}, {145, 146, 147, 148, 149, 150, 151, 152, 153}, {154, 155, 156, 157, 158, 159, 160, 161, 162}, {163, 164, 165, 166, 167, 168, 169, 170, 171}, {172, 173, 174, 175, 176, 177, 178, 179, 180}, {181, 182, 183, 184, 185, 186, 187, 188, 189}, {190, 191, 192, 193, 194, 195, 196, 197, 198}, {199, 200, 201, 202, 203, 204, 205, 206, 207}, {208, 209, 210, 211, 212, 213, 214, 215, 216}, {217, 218, 219, 220, 221, 222, 223, 224, 225}, {226, 227, 228, 229, 230, 231, 232, 233, 234}, {235, 236, 237, 238, 239, 240, 241, 242, 243}, {244, 245, 246, 247, 248, 249, 250, 251, 252}, {253, 254, 255, 256, 257, 258, 259, 260, 261}, {262, 263, 264, 265, 266, 267, 268, 269, 270}, {271, 272, 273, 274, 275, 276, 277, 278, 279}, {280, 281, 282, 283, 284, 285, 286, 287, 288}, {289, 290, 291, 292, 293, 294, 295, 296, 297}, {298, 299, 300, 301, 302, 303, 304, 305, 306}, {307, 308, 309, 310, 311, 312, 313, 314, 315}, {316, 317, 318, 319, 320, 321, 322, 323, 324}, {325, 326, 327, 328, 329, 330, 331, 332, 333}, {334, 335, 336, 337, 338, 339, 340, 341, 342}, {343, 344, 345, 346, 347, 348, 349, 350, 351}, {352, 353, 354, 355, 356, 357, 358, 359, 360}, {361, 362, 363, 364, 365, 366, 367, 368, 369}, {370, 371, 372, 373, 374, 375, 376, 377, 378}, {379, 380, 381, 382, 383, 384, 385, 386, 387}, {388, 389, 390, 391, 392, 393, 394, 395, 396}, {397, 398, 399, 400, 401, 402, 403, 404, 405}, {406, 407, 408, 409, 410, 411, 412, 413, 414}, {415, 416, 417, 418, 419, 420, 421, 422, 423}, {424, 425, 426, 427, 428, 429, 430, 431, 432}, {433, 434, 435, 436, 437, 438, 439, 440, 441}, {442, 443, 444, 445, 446, 447, 448, 449, 450}, {451, 452, 453, 454, 455, 456, 457, 458, 459}, {460, 461, 462, 463, 464, 465, 466, 467, 468}, {469, 470, 471, 472, 473, 474, 475, 476, 477}, {478, 479, 480, 481, 482, 483, 484, 485, 486}, {487, 488, 489, 490, 491, 492, 493, 494, 495}, {496, 497, 498, 499, 500, 501, 502, 503, 504}, {505, 506, 507, 508, 509, 510, 511, 512, 513}, {514, 515, 516, 517, 518, 519, 520, 521, 522}, {523, 524, 525, 526, 527, 528, 529, 530, 531}, {532, 533, 534, 535, 536, 537, 538, 539, 540}, {541, 542, 543, 544, 545, 546, 547, 548, 549}, {550, 551, 552, 553, 554, 555, 556, 557, 558}, {559, 560, 561, 562, 563, 564, 565, 566, 567}, {568, 569, 570, 571, 572, 573, 574, 575, 576}, {577, 578, 579, 580, 581, 582, 583, 584, 585}, {586, 587, 588, 589, 590, 591, 592, 593, 594}, {595, 596, 597, 598, 599, 600, 601, 602, 603}, {604, 605, 606, 607, 608, 609, 610, 611, 612}, {613, 614, 615, 616, 617, 618, 619, 620, 621}, {622, 623, 624, 625, 626, 627, 628, 629, 630}, {631, 632, 633, 634, 635, 636, 637, 638, 639}, {640, 641, 642, 643, 644, 645, 646, 647, 648}, {649, 650, 651, 652, 653, 654, 655, 656, 657}, {658, 659, 660, 661, 662, 663, 664, 665, 666}, {667, 668, 669, 670, 671, 672, 673, 674, 675}, {676, 677, 678, 679, 680, 681, 682, 683, 684}, {685, 686, 687, 688, 689, 690, 691, 692, 693}, {694, 695, 696, 697, 698, 699, 700, 701, 702}, {703, 704, 705, 706, 707, 708, 709, 710, 711}, {712, 713, 714, 715, 716, 717, 718, 719, 720}, {721, 722, 723, 724, 725, 726, 727, 728, 729}, {730, 731, 732, 733, 734, 735, 736, 737, 738}, {739, 740, 741, 742, 743, 744, 745, 746, 747}, {748, 749, 750, 751, 752, 753, 754, 755, 756}, {757, 758, 759, 760, 761, 762, 763, 764, 765}, {766, 767, 768, 769, 770, 771, 772, 773, 774}, {775, 776, 777, 778, 779, 780, 781, 782, 783}, {784, 785, 786, 787, 788, 789, 790, 791, 792}, {793, 794, 795, 796, 797, 798, 799, 800, 801}, {802, 803, 804, 805, 806, 807, 808, 809, 810}, {811, 812, 813, 814, 815, 816, 817, 818, 819}, {820, 821, 822, 823, 824, 825, 826, 827, 828}, {829, 830, 831, 832, 833, 834, 835, 836, 837}, {838, 839, 840, 841, 842, 843, 844, 845, 846}, {847, 848, 849, 850, 851, 852, 853, 854, 855}, {856, 857, 858, 859, 860, 861, 862, 863, 864}, {865, 866, 867, 868, 869, 870, 871, 872, 873}, {874, 875, 876, 877, 878, 879, 880, 881, 882}, {883, 884, 885, 886, 887, 888, 889, 890, 891}, {892, 893, 894, 895, 896, 897, 898, 899, 900}];
succ =  [{53, 49, 45, 39, 34, 30, 26, 25, 16}, {54, 48, 45, 40, 39, 25, 24, 16}, {57, 54, 53, 52, 49, 48, 47, 45, 42, 40, 39, 36, 35, 34, 33, 31, 26}, {55, 54, 50, 47, 32, 28, 16}, {55, 53, 49, 47, 45, 29, 16}, {69, 57, 55, 54, 51, 48, 47, 45, 43, 42, 35, 32, 30}, {54, 53, 50, 48, 42, 39, 37, 35, 33, 31, 25}, {54, 51, 43, 42, 39, 28, 25, 20}, {54, 53, 51, 48, 42, 37, 33, 28, 26}, {65, 54, 53, 50, 41, 40, 25, 20}, {59, 55, 50, 48, 16}, {69, 57, 55, 49, 45, 44, 43, 42, 41, 39, 38}, {77, 57, 52, 45, 43, 42, 40, 39, 27}, {54, 53, 52, 47, 45, 35, 34, 28}, {77, 69, 59, 56, 53, 51, 48, 44, 37, 29}, {60, 51, 43, 42, 41, 37, 35, 33}, {64, 58, 55, 54, 47, 44, 39, 37, 36, 32}, {69, 56, 50, 48, 46, 44, 42, 41, 32}, {65, 59, 54, 51, 43, 41, 38, 37}, {77, 69, 64, 61, 60, 59, 58, 56, 55, 52, 47, 44, 37}, {71, 69, 65, 59, 57, 56, 51, 46, 44, 41, 38}, {77, 71, 69, 48, 46, 45, 44, 43, 40, 38}, {71, 59, 57, 44, 42, 38, 33}, {69, 64, 57, 56, 51, 44, 32}, {73, 72, 71, 69, 64, 62, 61, 60, 59, 58, 57, 55, 47, 46}, {71, 65, 64, 60, 59, 46, 44, 43, 41}, {71, 69, 62, 61, 60, 59, 58, 56, 46, 44}, {76, 73, 71, 67, 41, 38}, {76, 74, 66, 62, 42, 39}, {58, 46, 41, 38}, {79, 78, 76, 70, 68, 64, 62, 60, 59, 43}, {79, 74, 73, 71, 68, 67, 63, 61, 60, 59, 53}, {87, 80, 79, 77, 76, 75, 74, 73, 72, 69, 68, 67, 66, 64, 61}, {80, 79, 77, 74, 73, 69, 68, 65, 63, 62, 58, 56}, {88, 80, 79, 72, 65, 62, 61, 44}, {80, 79, 77, 75, 74, 72, 70, 68, 67, 66, 63, 59}, {80, 72, 71, 68, 66, 62, 57, 46}, {88, 79, 78, 74, 72, 68, 64, 63, 62, 61, 60}, {100, 88, 87, 86, 85, 79, 78, 75, 73, 72, 71, 70, 63, 60}, {100, 99, 96, 95, 88, 87, 85, 84, 82, 79, 76, 73, 72, 70, 68, 67}, {87, 79, 77, 75, 72, 70, 68, 66, 63}, {85, 80, 79, 78, 73, 68, 65, 64, 58}, {100, 88, 87, 86, 74, 73, 66, 58, 56}, {100, 99, 96, 87, 85, 84, 82, 76, 74, 73, 70, 68, 67}, {94, 87, 86, 84, 78, 75, 74, 73, 66, 61}, {100, 99, 96, 95, 94, 88, 87, 86, 85, 84, 83, 82, 79, 70, 67}, {100, 96, 87, 85, 84, 82, 74, 68, 67, 63}, {98, 88, 86, 82, 78, 76, 72, 66, 62}, {86, 84, 80, 73, 66, 59}, {99, 94, 88, 87, 85, 84, 81, 80, 79, 78, 75, 74, 73}, {97, 88, 87, 72, 70, 68, 58}, {100, 99, 96, 88, 87, 83, 81, 80, 78, 68}, {100, 97, 88, 86, 75, 72, 66}, {100, 99, 98, 96, 94, 88, 86, 83, 80, 79, 78}, {98, 95, 88, 87, 68, 66}, {99, 98, 97, 96, 95, 93, 85, 83, 82, 81, 72}, {97, 96, 87, 86, 85, 84, 76, 70}, {96, 95, 94, 84, 83, 81, 75}, {100, 98, 97, 94, 91, 90, 88, 87, 81}, {99, 97, 96, 93, 92, 91, 84, 80}, {100, 99, 95, 91, 85, 70}, {95, 94, 91, 87, 84, 83, 81}, {99, 97, 95, 91, 89, 83, 81}, {99, 96, 94, 93, 92, 91, 82}, {100, 96, 95, 94, 92, 91, 82}, {99, 96, 85, 83, 81}, {98, 90, 81, 78}, {94, 93, 90, 89, 86}, {91, 89, 88, 81}, {93, 90, 89, 81}, {94, 92, 90, 82}, {94, 91, 90, 89}, {93, 91, 90, 89}, {95, 93, 90, 89}, {98, 91, 82}, {93, 89, 83}, {100, 91, 84}, {97, 91, 89}, {92, 90, 89}, {95, 82}, {92}, {89}, {90}, {90}, {89}, {91}, {89}, {93}, {}, {}, {}, {}, {}, {}, {}, {}, {}, {}, {}, {}];
n_opt = 900;
dur = [6, 11, 13, 14, 15, 16, 18, 22, 25, 6, 8, 12, 18, 22, 25, 26, 27, 30, 1, 2, 5, 6, 14, 15, 20, 24, 25, 3, 11, 12, 15, 17, 18, 25, 26, 29, 1, 2, 3, 10, 14, 15, 22, 23, 28, 9, 12, 15, 16, 22, 23, 26, 27, 30, 4, 6, 7, 9, 10, 17, 18, 22, 28, 1, 2, 12, 14, 15, 21, 22, 24, 27, 4, 5, 6, 9, 17, 18, 19, 27, 28, 2, 7, 11, 12, 13, 14, 16, 21, 30, 1, 2, 4, 5, 6, 18, 25, 29, 30, 5, 9, 10, 11, 16, 17, 21, 26, 27, 10, 12, 13, 16, 20, 21, 26, 27, 28, 1, 3, 4, 10, 11, 17, 18, 23, 24, 2, 11, 12, 13, 14, 15, 21, 25, 30, 10, 12, 18, 19, 22, 26, 28, 29, 30, 5, 7, 8, 9, 12, 14, 20, 24, 25, 3, 4, 5, 9, 12, 14, 21, 24, 27, 1, 10, 11, 12, 17, 24, 25, 26, 29, 1, 4, 9, 15, 17, 19, 20, 21, 27, 2, 3, 4, 8, 18, 19, 20, 21, 22, 6, 7, 12, 18, 19, 20, 21, 25, 26, 7, 12, 13, 14, 19, 20, 24, 25, 30, 1, 2, 4, 7, 12, 14, 19, 21, 30, 2, 6, 7, 8, 14, 15, 17, 18, 29, 2, 3, 8, 10, 13, 16, 19, 23, 26, 11, 13, 14, 17, 18, 19, 21, 22, 28, 2, 4, 11, 12, 15, 18, 19, 25, 27, 2, 6, 7, 10, 15, 24, 25, 26, 27, 3, 4, 8, 14, 17, 18, 21, 26, 28, 1, 7, 8, 9, 10, 13, 15, 29, 30, 1, 3, 4, 5, 7, 8, 9, 22, 26, 1, 8, 11, 13, 20, 23, 24, 29, 30, 3, 8, 11, 15, 19, 23, 25, 26, 27, 1, 4, 7, 9, 11, 13, 18, 19, 22, 3, 9, 10, 16, 17, 23, 26, 27, 30, 1, 2, 5, 6, 7, 10, 18, 22, 29, 3, 10, 16, 17, 18, 20, 22, 26, 27, 10, 11, 15, 21, 22, 26, 27, 28, 30, 2, 16, 18, 25, 26, 27, 28, 29, 30, 3, 5, 6, 7, 10, 11, 15, 23, 30, 6, 7, 8, 9, 10, 14, 20, 21, 29, 3, 4, 11, 12, 16, 17, 19, 21, 29, 1, 4, 11, 12, 16, 18, 19, 26, 27, 1, 2, 6, 11, 17, 21, 22, 24, 29, 1, 6, 8, 10, 12, 13, 14, 24, 26, 4, 7, 13, 15, 18, 20, 27, 28, 30, 1, 5, 8, 9, 12, 20, 22, 26, 30, 2, 4, 8, 9, 10, 11, 12, 25, 27, 6, 7, 11, 12, 13, 16, 17, 21, 27, 3, 4, 5, 13, 16, 19, 25, 29, 30, 5, 11, 13, 16, 17, 18, 22, 27, 29, 1, 2, 12, 14, 15, 19, 20, 21, 22, 11, 12, 13, 14, 15, 19, 20, 23, 25, 8, 9, 10, 11, 12, 13, 17, 22, 26, 7, 13, 14, 18, 19, 26, 28, 29, 30, 3, 5, 8, 11, 13, 16, 23, 26, 27, 4, 5, 6, 13, 14, 16, 21, 28, 29, 8, 9, 13, 20, 21, 24, 25, 28, 29, 2, 3, 6, 11, 22, 26, 27, 29, 30, 9, 10, 11, 12, 15, 19, 23, 28, 29, 1, 7, 9, 10, 11, 13, 15, 18, 28, 1, 2, 3, 8, 9, 12, 13, 14, 27, 2, 5, 8, 12, 13, 16, 17, 24, 29, 2, 4, 6, 7, 13, 27, 28, 29, 30, 8, 12, 13, 14, 17, 18, 24, 25, 28, 8, 9, 11, 13, 15, 16, 20, 26, 27, 4, 6, 13, 14, 19, 21, 22, 23, 28, 1, 5, 8, 9, 16, 17, 20, 26, 28, 8, 11, 12, 16, 17, 26, 28, 29, 30, 2, 4, 9, 10, 11, 22, 23, 24, 25, 1, 2, 3, 6, 9, 10, 11, 12, 15, 12, 14, 17, 18, 24, 25, 26, 27, 30, 2, 7, 9, 10, 17, 18, 19, 21, 24, 3, 9, 14, 18, 19, 26, 27, 28, 29, 2, 4, 5, 9, 11, 12, 16, 17, 20, 3, 6, 7, 8, 13, 19, 25, 29, 30, 1, 4, 5, 8, 9, 11, 13, 26, 27, 3, 10, 14, 19, 20, 22, 23, 29, 30, 3, 4, 9, 10, 11, 12, 17, 20, 25, 2, 6, 7, 14, 19, 20, 21, 28, 29, 6, 7, 10, 15, 18, 21, 22, 26, 29, 3, 5, 7, 8, 9, 12, 15, 27, 28, 2, 3, 6, 8, 11, 19, 27, 28, 29, 2, 7, 8, 9, 14, 19, 24, 25, 27, 1, 7, 8, 10, 11, 14, 16, 18, 24, 1, 3, 4, 5, 15, 18, 23, 24, 30, 1, 6, 9, 14, 15, 17, 18, 23, 26, 7, 8, 12, 20, 21, 24, 25, 26, 28, 1, 2, 6, 8, 9, 10, 12, 20, 25, 2, 15, 17, 18, 24, 26, 27, 29, 30, 2, 3, 6, 11, 14, 17, 21, 24, 29, 1, 5, 8, 9, 16, 19, 20, 21, 25, 6, 7, 12, 13, 14, 16, 21, 22, 29, 1, 8, 9, 14, 23, 25, 26, 27, 28, 3, 4, 12, 15, 16, 17, 18, 28, 29, 2, 10, 11, 12, 13, 15, 21, 24, 27, 9, 12, 13, 18, 20, 24, 28, 29, 30, 11, 15, 19, 20, 25, 26, 27, 28, 29, 2, 8, 10, 13, 14, 15, 24, 25, 28];
rreq = [|2, 1, 1, 1, 1, 1, 1, 1, 1, 5, 4, 3, 3, 3, 2, 2, 1, 1, 2, 2, 2, 2, 2, 2, 2, 2, 2, 2, 1, 1, 1, 1, 1, 1, 1, 1, 3, 3, 3, 3, 3, 3, 3, 3, 3, 4, 4, 3, 3, 3, 2, 1, 1, 1, 5, 4, 4, 4, 3, 3, 3, 2, 2, 3, 2, 2, 2, 2, 1, 1, 1, 1, 4, 3, 3, 3, 3, 2, 2, 2, 2, 4, 3, 3, 3, 3, 3, 3, 3, 3, 1, 1, 1, 1, 1, 1, 1, 1, 1, 5, 4, 4, 4, 4, 3, 3, 3, 3, 1, 1, 1, 1, 1, 1, 1, 1, 1, 4, 3, 3, 2, 2, 2, 2, 1, 1, 4, 4, 3, 3, 3, 2, 2, 1, 1, 1, 1, 1, 1, 1, 1, 1, 1, 1, 5, 4, 4, 4, 3, 3, 3, 3, 3, 4, 3, 3, 3, 3, 2, 2, 2, 2, 4, 4, 3, 3, 2, 2, 2, 1, 1, 3, 3, 3, 3, 2, 2, 1, 1, 1, 5, 5, 5, 5, 5, 5, 5, 5, 5, 5, 4, 4, 4, 3, 3, 3, 3, 3, 2, 2, 2, 2, 2, 2, 2, 2, 2, 2, 1, 1, 1, 1, 1, 1, 1, 1, 2, 2, 2, 2, 2, 2, 2, 2, 2, 3, 3, 3, 3, 3, 3, 3, 3, 3, 4, 4, 4, 4, 4, 4, 4, 4, 4, 1, 1, 1, 1, 1, 1, 1, 1, 1, 4, 3, 3, 3, 3, 3, 3, 3, 3, 3, 3, 3, 3, 3, 3, 3, 3, 3, 4, 4, 4, 3, 3, 3, 3, 2, 2, 4, 4, 4, 4, 4, 4, 4, 4, 4, 4, 4, 4, 3, 2, 2, 2, 1, 1, 3, 2, 2, 2, 2, 1, 1, 1, 1, 2, 2, 2, 2, 2, 2, 2, 2, 2, 3, 3, 3, 3, 3, 3, 3, 3, 3, 4, 3, 3, 3, 3, 2, 2, 2, 2, 4, 4, 4, 4, 3, 3, 3, 3, 3, 4, 4, 4, 4, 4, 4, 4, 4, 4, 2, 2, 2, 2, 2, 2, 2, 2, 2, 5, 4, 4, 3, 3, 3, 3, 2, 2, 2, 2, 2, 2, 2, 2, 2, 2, 2, 2, 1, 1, 1, 1, 1, 1, 1, 1, 4, 4, 4, 4, 4, 3, 3, 3, 3, 2, 2, 2, 2, 2, 2, 2, 2, 2, 3, 2, 2, 2, 2, 1, 1, 1, 1, 3, 3, 3, 3, 2, 2, 1, 1, 1, 1, 1, 1, 1, 1, 1, 1, 1, 1, 4, 4, 4, 4, 4, 4, 4, 4, 4, 4, 3, 3, 3, 3, 3, 3, 3, 3, 5, 4, 4, 4, 4, 4, 4, 4, 4, 4, 3, 3, 3, 3, 3, 3, 3, 3, 5, 5, 5, 5, 5, 5, 5, 5, 5, 3, 2, 2, 2, 2, 2, 2, 2, 2, 3, 2, 2, 2, 1, 1, 1, 1, 1, 4, 3, 3, 3, 2, 2, 2, 1, 1, 4, 3, 3, 3, 3, 3, 3, 3, 3, 1, 1, 1, 1, 1, 1, 1, 1, 1, 5, 4, 4, 4, 4, 4, 4, 4, 4, 4, 4, 3, 3, 2, 2, 2, 1, 1, 4, 4, 4, 4, 4, 4, 4, 4, 4, 3, 2, 2, 2, 1, 1, 1, 1, 1, 3, 3, 3, 3, 3, 3, 3, 3, 3, 5, 4, 4, 3, 3, 2, 1, 1, 1, 4, 4, 4, 4, 4, 4, 4, 4, 4, 5, 4, 4, 4, 4, 4, 4, 4, 4, 3, 3, 3, 3, 3, 3, 3, 3, 3, 2, 2, 2, 2, 2, 2, 2, 2, 2, 5, 4, 4, 3, 2, 2, 2, 1, 1, 4, 3, 3, 3, 2, 2, 1, 1, 1, 5, 4, 4, 4, 3, 3, 3, 3, 3, 2, 1, 1, 1, 1, 1, 1, 1, 1, 2, 2, 2, 2, 2, 2, 2, 2, 2, 4, 3, 3, 3, 2, 2, 2, 2, 2, 4, 3, 3, 3, 3, 2, 2, 2, 2, 2, 2, 2, 2, 2, 2, 2, 2, 2, 2, 2, 2, 2, 2, 2, 2, 2, 2, 2, 2, 2, 2, 2, 2, 2, 2, 2, 2, 1, 1, 1, 1, 1, 1, 1, 1, 5, 4, 4, 4, 3, 3, 3, 3, 3, 4, 4, 4, 4, 4, 4, 4, 4, 4, 5, 4, 4, 4, 4, 4, 4, 4, 4, 4, 4, 4, 3, 3, 3, 2, 2, 2, 5, 4, 4, 4, 3, 3, 3, 3, 3, 3, 2, 2, 2, 2, 1, 1, 1, 1, 2, 2, 2, 2, 2, 1, 1, 1, 1, 4, 3, 3, 3, 3, 2, 2, 2, 2, 3, 3, 3, 3, 3, 3, 3, 3, 3, 5, 4, 4, 4, 4, 4, 4, 4, 4, 1, 1, 1, 1, 1, 1, 1, 1, 1, 4, 4, 4, 4, 3, 3, 3, 3, 3, 2, 1, 1, 1, 1, 1, 1, 1, 1, 4, 3, 3, 3, 3, 3, 3, 3, 3, 3, 2, 2, 2, 2, 1, 1, 1, 1, 5, 4, 4, 4, 3, 3, 2, 2, 2, 3, 3, 3, 2, 2, 2, 2, 1, 1, 4, 4, 4, 4, 4, 4, 4, 4, 4, 4, 3, 3, 3, 2, 2, 2, 2, 2, 2, 1, 1, 1, 1, 1, 1, 1, 1, 4, 3, 3, 3, 3, 3, 3, 3, 3
 |4, 3, 3, 3, 3, 3, 3, 3, 3, 3, 3, 3, 3, 2, 2, 2, 1, 1, 5, 5, 5, 5, 5, 5, 5, 5, 5, 2, 1, 1, 1, 1, 1, 1, 1, 1, 3, 3, 3, 3, 3, 3, 3, 3, 3, 2, 2, 2, 2, 2, 2, 2, 2, 2, 4, 4, 3, 3, 2, 2, 2, 1, 1, 4, 4, 3, 3, 3, 2, 2, 1, 1, 2, 2, 2, 2, 2, 2, 2, 2, 2, 3, 2, 2, 2, 2, 1, 1, 1, 1, 3, 3, 3, 3, 2, 2, 2, 2, 2, 5, 4, 4, 4, 4, 4, 4, 4, 4, 2, 2, 2, 2, 2, 2, 2, 2, 2, 4, 3, 3, 3, 3, 3, 3, 3, 3, 3, 3, 3, 3, 3, 3, 3, 3, 3, 2, 2, 2, 2, 2, 2, 2, 2, 2, 3, 3, 3, 2, 2, 2, 2, 1, 1, 3, 3, 3, 3, 3, 2, 2, 2, 2, 5, 4, 4, 4, 4, 3, 3, 3, 3, 4, 4, 4, 4, 4, 3, 3, 3, 3, 5, 4, 4, 3, 3, 2, 1, 1, 1, 4, 4, 4, 3, 3, 2, 1, 1, 1, 1, 1, 1, 1, 1, 1, 1, 1, 1, 2, 2, 2, 2, 1, 1, 1, 1, 1, 3, 3, 3, 3, 2, 2, 2, 2, 2, 4, 4, 4, 3, 3, 3, 2, 2, 2, 3, 2, 2, 2, 2, 2, 2, 2, 2, 1, 1, 1, 1, 1, 1, 1, 1, 1, 4, 4, 4, 3, 3, 3, 2, 2, 2, 5, 4, 4, 4, 4, 4, 4, 4, 4, 3, 3, 3, 3, 3, 3, 3, 3, 3, 4, 4, 4, 4, 4, 4, 4, 4, 4, 3, 3, 3, 2, 2, 2, 2, 1, 1, 3, 2, 2, 2, 2, 2, 2, 2, 2, 4, 3, 3, 3, 3, 3, 3, 3, 3, 4, 3, 3, 3, 3, 2, 2, 2, 2, 1, 1, 1, 1, 1, 1, 1, 1, 1, 4, 4, 4, 3, 3, 2, 2, 1, 1, 5, 4, 4, 4, 4, 4, 4, 4, 4, 3, 3, 3, 2, 2, 2, 1, 1, 1, 2, 2, 2, 2, 2, 2, 2, 2, 2, 4, 3, 3, 3, 2, 2, 2, 2, 2, 4, 4, 4, 4, 4, 4, 4, 4, 4, 3, 3, 3, 3, 2, 2, 2, 2, 2, 5, 4, 4, 3, 3, 2, 2, 1, 1, 5, 4, 4, 4, 3, 3, 3, 3, 3, 3, 3, 3, 3, 2, 2, 2, 2, 2, 1, 1, 1, 1, 1, 1, 1, 1, 1, 4, 4, 4, 3, 2, 2, 2, 1, 1, 5, 4, 4, 3, 3, 3, 2, 2, 2, 3, 3, 3, 3, 3, 3, 3, 3, 3, 4, 4, 4, 4, 4, 4, 4, 4, 4, 5, 4, 3, 3, 3, 2, 1, 1, 1, 2, 1, 1, 1, 1, 1, 1, 1, 1, 2, 2, 2, 2, 1, 1, 1, 1, 1, 1, 1, 1, 1, 1, 1, 1, 1, 1, 5, 5, 5, 5, 5, 5, 5, 5, 5, 5, 4, 4, 4, 3, 3, 3, 2, 2, 5, 4, 4, 4, 3, 3, 3, 2, 2, 4, 3, 3, 3, 2, 2, 2, 2, 2, 5, 4, 4, 4, 3, 3, 3, 3, 3, 3, 3, 3, 3, 3, 3, 3, 3, 3, 5, 5, 5, 5, 5, 5, 5, 5, 5, 4, 3, 3, 3, 3, 2, 2, 2, 2, 1, 1, 1, 1, 1, 1, 1, 1, 1, 2, 2, 2, 2, 1, 1, 1, 1, 1, 2, 2, 2, 2, 2, 2, 2, 2, 2, 2, 1, 1, 1, 1, 1, 1, 1, 1, 2, 2, 2, 2, 2, 1, 1, 1, 1, 5, 4, 3, 3, 2, 2, 2, 1, 1, 4, 4, 4, 4, 4, 3, 3, 3, 3, 4, 4, 4, 4, 4, 4, 4, 4, 4, 4, 3, 3, 3, 3, 3, 3, 3, 3, 4, 4, 4, 4, 3, 3, 2, 2, 2, 3, 3, 3, 3, 2, 2, 1, 1, 1, 5, 4, 4, 4, 4, 4, 4, 4, 4, 3, 3, 3, 3, 2, 2, 2, 1, 1, 1, 1, 1, 1, 1, 1, 1, 1, 1, 4, 3, 3, 3, 2, 2, 1, 1, 1, 5, 4, 4, 3, 3, 3, 2, 2, 2, 2, 2, 2, 2, 2, 2, 2, 2, 2, 4, 4, 4, 4, 3, 3, 3, 3, 3, 5, 4, 4, 4, 3, 3, 3, 3, 3, 4, 4, 3, 3, 3, 2, 1, 1, 1, 4, 4, 4, 4, 4, 4, 4, 4, 4, 5, 4, 4, 3, 3, 2, 1, 1, 1, 3, 2, 2, 2, 2, 2, 2, 2, 2, 4, 4, 4, 3, 3, 2, 2, 1, 1, 5, 4, 4, 3, 2, 2, 2, 1, 1, 4, 4, 3, 3, 3, 2, 2, 1, 1, 5, 5, 5, 5, 5, 5, 5, 5, 5, 2, 1, 1, 1, 1, 1, 1, 1, 1, 2, 2, 2, 2, 2, 2, 2, 2, 2, 4, 4, 4, 4, 3, 3, 2, 2, 2, 2, 1, 1, 1, 1, 1, 1, 1, 1, 5, 4, 4, 4, 4, 3, 3, 3, 3, 3, 2, 2, 2, 1, 1, 1, 1, 1, 3, 3, 3, 3, 2, 2, 1, 1, 1, 2, 2, 2, 2, 2, 1, 1, 1, 1, 2, 2, 2, 2, 2, 2, 2, 2, 2
 |4, 4, 4, 4, 4, 4, 4, 4, 4, 1, 1, 1, 1, 1, 1, 1, 1, 1, 3, 3, 3, 3, 2, 2, 1, 1, 1, 5, 4, 3, 3, 2, 2, 1, 1, 1, 5, 4, 4, 4, 3, 3, 2, 2, 2, 4, 4, 4, 3, 3, 3, 2, 2, 2, 5, 5, 5, 5, 5, 5, 5, 5, 5, 5, 4, 4, 4, 3, 3, 3, 3, 3, 4, 3, 3, 3, 2, 2, 2, 2, 2, 5, 4, 4, 3, 2, 2, 2, 1, 1, 4, 4, 4, 4, 4, 4, 4, 4, 4, 2, 2, 2, 2, 2, 2, 2, 2, 2, 2, 1, 1, 1, 1, 1, 1, 1, 1, 3, 2, 2, 2, 2, 2, 2, 2, 2, 5, 4, 4, 4, 4, 3, 3, 3, 3, 3, 3, 3, 3, 3, 3, 3, 3, 3, 2, 2, 2, 2, 2, 2, 2, 2, 2, 5, 5, 5, 5, 5, 5, 5, 5, 5, 3, 3, 3, 3, 3, 3, 3, 3, 3, 4, 4, 4, 4, 4, 4, 4, 4, 4, 5, 5, 5, 5, 5, 5, 5, 5, 5, 5, 4, 4, 3, 3, 2, 2, 1, 1, 4, 3, 3, 3, 2, 2, 2, 2, 2, 3, 2, 2, 2, 1, 1, 1, 1, 1, 5, 4, 4, 3, 3, 2, 1, 1, 1, 2, 1, 1, 1, 1, 1, 1, 1, 1, 3, 3, 3, 3, 3, 3, 3, 3, 3, 5, 4, 4, 4, 4, 4, 4, 4, 4, 2, 2, 2, 2, 2, 2, 2, 2, 2, 2, 2, 2, 2, 2, 1, 1, 1, 1, 4, 3, 3, 3, 3, 2, 2, 2, 2, 1, 1, 1, 1, 1, 1, 1, 1, 1, 5, 5, 5, 5, 5, 5, 5, 5, 5, 1, 1, 1, 1, 1, 1, 1, 1, 1, 2, 2, 2, 2, 2, 2, 2, 2, 2, 3, 3, 3, 3, 3, 3, 3, 3, 3, 4, 3, 3, 3, 3, 3, 3, 3, 3, 5, 4, 3, 3, 2, 2, 2, 1, 1, 5, 4, 4, 3, 3, 3, 3, 2, 2, 1, 1, 1, 1, 1, 1, 1, 1, 1, 2, 2, 2, 2, 2, 2, 2, 2, 2, 4, 3, 3, 3, 3, 3, 3, 3, 3, 1, 1, 1, 1, 1, 1, 1, 1, 1, 4, 4, 4, 3, 3, 2, 2, 1, 1, 4, 4, 4, 3, 3, 2, 1, 1, 1, 4, 4, 4, 3, 3, 2, 2, 1, 1, 1, 1, 1, 1, 1, 1, 1, 1, 1, 3, 3, 3, 3, 2, 2, 2, 2, 2, 4, 3, 3, 3, 2, 2, 2, 2, 2, 2, 2, 2, 2, 1, 1, 1, 1, 1, 3, 3, 3, 2, 2, 2, 1, 1, 1, 4, 4, 4, 4, 4, 4, 4, 4, 4, 2, 2, 2, 2, 2, 2, 2, 2, 2, 4, 4, 4, 4, 4, 4, 4, 4, 4, 4, 4, 4, 3, 3, 3, 3, 2, 2, 3, 3, 3, 3, 3, 2, 2, 2, 2, 4, 3, 3, 3, 3, 3, 3, 3, 3, 3, 3, 3, 3, 3, 2, 2, 2, 2, 3, 3, 3, 3, 2, 2, 2, 2, 2, 2, 2, 2, 2, 1, 1, 1, 1, 1, 2, 2, 2, 2, 1, 1, 1, 1, 1, 4, 4, 4, 4, 3, 3, 3, 2, 2, 4, 3, 3, 3, 2, 2, 1, 1, 1, 3, 2, 2, 2, 2, 2, 2, 2, 2, 4, 3, 3, 2, 2, 2, 2, 1, 1, 2, 2, 2, 2, 2, 1, 1, 1, 1, 5, 4, 3, 3, 2, 2, 1, 1, 1, 5, 4, 4, 3, 3, 3, 2, 2, 2, 3, 3, 3, 3, 2, 2, 2, 2, 2, 3, 3, 3, 3, 3, 3, 3, 3, 3, 5, 4, 4, 3, 2, 2, 2, 1, 1, 5, 4, 4, 4, 4, 3, 3, 3, 3, 4, 3, 3, 3, 3, 3, 3, 3, 3, 5, 4, 4, 4, 4, 3, 3, 3, 3, 4, 4, 4, 4, 4, 3, 3, 3, 3, 3, 3, 3, 3, 3, 3, 3, 3, 3, 3, 2, 2, 2, 2, 2, 2, 2, 2, 4, 4, 4, 3, 2, 2, 2, 1, 1, 4, 3, 3, 3, 3, 3, 3, 3, 3, 3, 2, 2, 2, 2, 2, 2, 2, 2, 3, 3, 3, 3, 3, 3, 3, 3, 3, 3, 2, 2, 2, 1, 1, 1, 1, 1, 3, 3, 3, 2, 2, 2, 2, 1, 1, 5, 5, 5, 5, 5, 5, 5, 5, 5, 4, 4, 4, 4, 4, 4, 4, 4, 4, 4, 4, 4, 4, 3, 3, 2, 2, 2, 4, 3, 3, 2, 2, 2, 2, 1, 1, 2, 2, 2, 2, 2, 2, 2, 2, 2, 4, 4, 4, 4, 4, 3, 3, 3, 3, 3, 2, 2, 2, 2, 2, 2, 2, 2, 4, 3, 3, 3, 3, 3, 3, 3, 3, 4, 4, 3, 3, 2, 2, 1, 1, 1, 4, 3, 3, 3, 2, 2, 2, 2, 2, 1, 1, 1, 1, 1, 1, 1, 1, 1, 4, 3, 3, 3, 3, 2, 2, 2, 2, 4, 3, 3, 3, 2, 2, 2, 2, 2, 3, 3, 3, 2, 2, 2, 1, 1, 1, 3, 3, 3, 3, 3, 3, 3, 3, 3, 2, 2, 2, 2, 2, 2, 2, 2, 2, 4, 4, 4, 3, 3, 3, 3, 2, 2
 |2, 2, 2, 2, 1, 1, 1, 1, 1, 5, 4, 3, 3, 3, 2, 1, 1, 1, 3, 3, 3, 2, 2, 2, 1, 1, 1, 2, 2, 2, 2, 1, 1, 1, 1, 1, 5, 5, 5, 5, 5, 5, 5, 5, 5, 4, 4, 4, 4, 4, 3, 3, 3, 3, 3, 3, 3, 3, 3, 3, 3, 3, 3, 1, 1, 1, 1, 1, 1, 1, 1, 1, 4, 4, 4, 4, 3, 3, 3, 3, 3, 5, 4, 4, 4, 3, 3, 3, 2, 2, 4, 4, 3, 3, 3, 2, 2, 1, 1, 3, 3, 3, 2, 2, 2, 1, 1, 1, 3, 3, 3, 3, 3, 3, 3, 3, 3, 5, 4, 4, 4, 3, 3, 3, 3, 3, 4, 4, 4, 4, 3, 3, 3, 3, 3, 5, 4, 4, 4, 3, 3, 3, 3, 3, 4, 3, 3, 3, 3, 3, 3, 3, 3, 3, 3, 3, 3, 2, 2, 1, 1, 1, 4, 4, 4, 4, 4, 4, 4, 4, 4, 5, 4, 4, 3, 3, 2, 2, 1, 1, 2, 2, 2, 2, 1, 1, 1, 1, 1, 2, 1, 1, 1, 1, 1, 1, 1, 1, 5, 4, 4, 4, 4, 3, 3, 3, 3, 4, 3, 3, 3, 3, 3, 3, 3, 3, 3, 3, 3, 3, 3, 3, 3, 3, 3, 1, 1, 1, 1, 1, 1, 1, 1, 1, 4, 4, 4, 4, 3, 3, 3, 2, 2, 3, 3, 3, 2, 2, 2, 1, 1, 1, 1, 1, 1, 1, 1, 1, 1, 1, 1, 5, 4, 4, 4, 4, 4, 4, 4, 4, 4, 3, 3, 3, 2, 2, 2, 1, 1, 4, 4, 4, 4, 4, 4, 4, 4, 4, 4, 3, 3, 3, 3, 2, 2, 2, 2, 5, 5, 5, 5, 5, 5, 5, 5, 5, 2, 1, 1, 1, 1, 1, 1, 1, 1, 4, 4, 4, 4, 4, 3, 3, 3, 3, 4, 3, 3, 2, 2, 2, 1, 1, 1, 4, 3, 3, 3, 3, 3, 3, 3, 3, 5, 4, 4, 4, 3, 3, 2, 2, 2, 4, 4, 4, 4, 3, 3, 3, 3, 3, 5, 5, 5, 5, 5, 5, 5, 5, 5, 4, 4, 4, 3, 3, 3, 3, 2, 2, 4, 4, 4, 4, 3, 3, 2, 2, 2, 5, 5, 5, 5, 5, 5, 5, 5, 5, 1, 1, 1, 1, 1, 1, 1, 1, 1, 2, 2, 2, 2, 2, 2, 2, 2, 2, 4, 4, 4, 4, 4, 4, 4, 4, 4, 3, 3, 3, 3, 3, 3, 3, 3, 3, 4, 4, 3, 3, 3, 2, 1, 1, 1, 3, 3, 3, 3, 2, 2, 2, 1, 1, 5, 4, 4, 4, 4, 4, 4, 4, 4, 2, 2, 2, 2, 1, 1, 1, 1, 1, 3, 3, 3, 3, 2, 2, 2, 2, 2, 4, 4, 4, 4, 4, 4, 4, 4, 4, 5, 4, 4, 3, 3, 3, 2, 2, 2, 1, 1, 1, 1, 1, 1, 1, 1, 1, 3, 2, 2, 2, 2, 1, 1, 1, 1, 5, 4, 3, 3, 2, 2, 1, 1, 1, 5, 4, 4, 3, 3, 2, 1, 1, 1, 3, 3, 3, 3, 3, 3, 3, 3, 3, 3, 3, 3, 3, 3, 3, 3, 3, 3, 1, 1, 1, 1, 1, 1, 1, 1, 1, 4, 3, 3, 3, 2, 2, 2, 2, 2, 4, 4, 4, 4, 3, 3, 3, 2, 2, 2, 2, 2, 2, 2, 2, 2, 2, 2, 3, 3, 3, 2, 2, 2, 2, 1, 1, 3, 3, 3, 3, 3, 3, 3, 3, 3, 2, 2, 2, 2, 2, 2, 2, 2, 2, 3, 3, 3, 3, 3, 3, 3, 3, 3, 4, 4, 4, 4, 4, 4, 4, 4, 4, 4, 4, 4, 4, 3, 3, 2, 2, 2, 4, 4, 4, 4, 4, 4, 4, 4, 4, 4, 3, 3, 3, 3, 3, 3, 3, 3, 3, 3, 3, 3, 3, 3, 3, 3, 3, 5, 4, 4, 4, 4, 3, 3, 3, 3, 4, 4, 4, 4, 4, 4, 4, 4, 4, 3, 3, 3, 3, 3, 3, 3, 3, 3, 3, 3, 3, 3, 3, 3, 3, 3, 3, 4, 4, 4, 4, 3, 3, 3, 3, 3, 2, 2, 2, 2, 2, 2, 2, 2, 2, 4, 4, 4, 4, 4, 4, 4, 4, 4, 4, 4, 4, 3, 3, 2, 2, 1, 1, 3, 2, 2, 2, 2, 1, 1, 1, 1, 5, 4, 3, 3, 2, 2, 1, 1, 1, 1, 1, 1, 1, 1, 1, 1, 1, 1, 4, 4, 4, 4, 3, 3, 3, 3, 3, 4, 4, 4, 4, 4, 4, 4, 4, 4, 5, 4, 4, 4, 3, 3, 3, 2, 2, 1, 1, 1, 1, 1, 1, 1, 1, 1, 5, 5, 5, 5, 5, 5, 5, 5, 5, 5, 4, 4, 4, 4, 3, 3, 3, 3, 3, 3, 3, 3, 3, 2, 2, 2, 2, 3, 3, 3, 3, 3, 2, 2, 2, 2, 5, 4, 4, 4, 3, 3, 2, 2, 2, 3, 3, 3, 3, 3, 3, 3, 3, 3, 2, 2, 2, 2, 2, 2, 2, 2, 2, 1, 1, 1, 1, 1, 1, 1, 1, 1, 2, 2, 2, 2, 2, 2, 2, 2, 2, 3, 2, 2, 2, 2, 1, 1, 1, 1, 2, 2, 2, 2, 2, 1, 1, 1, 1
 |29, 27, 24, 23, 22, 21, 19, 16, 16, 22, 21, 18, 18, 17, 14, 13, 11, 11, 13, 12, 12, 12, 12, 12, 12, 12, 12, 27, 26, 26, 26, 26, 26, 26, 26, 26, 17, 16, 14, 14, 12, 12, 10, 10, 9, 17, 17, 17, 16, 16, 16, 15, 15, 15, 18, 16, 13, 10, 10, 7, 6, 3, 2, 25, 24, 22, 21, 19, 19, 18, 15, 15, 15, 14, 12, 12, 11, 10, 9, 8, 8, 26, 25, 24, 23, 21, 20, 19, 19, 18, 14, 14, 14, 14, 14, 14, 14, 14, 14, 3, 3, 3, 3, 3, 3, 3, 3, 3, 18, 15, 14, 13, 11, 7, 7, 5, 1, 14, 14, 13, 11, 11, 10, 9, 8, 8, 15, 14, 12, 11, 11, 11, 10, 9, 8, 13, 10, 9, 9, 6, 6, 5, 2, 1, 25, 24, 21, 18, 17, 16, 14, 11, 10, 27, 26, 25, 23, 19, 19, 17, 15, 11, 14, 13, 11, 11, 9, 8, 8, 6, 6, 10, 9, 8, 7, 5, 5, 3, 2, 2, 18, 15, 14, 13, 11, 10, 7, 7, 6, 22, 20, 19, 19, 17, 15, 15, 14, 12, 11, 10, 9, 7, 7, 6, 5, 5, 4, 27, 27, 25, 21, 21, 17, 15, 15, 13, 14, 13, 13, 11, 9, 9, 7, 7, 6, 23, 21, 21, 19, 19, 17, 16, 15, 14, 25, 22, 19, 17, 12, 12, 10, 5, 3, 20, 17, 16, 16, 14, 13, 13, 11, 11, 12, 10, 8, 7, 6, 5, 4, 3, 2, 25, 24, 23, 22, 22, 22, 21, 21, 20, 25, 25, 22, 20, 18, 15, 13, 12, 11, 6, 6, 6, 6, 5, 5, 4, 4, 4, 28, 25, 25, 22, 22, 21, 20, 17, 16, 13, 13, 13, 13, 12, 12, 11, 11, 11, 27, 23, 22, 22, 20, 19, 16, 16, 13, 13, 13, 11, 10, 10, 10, 9, 7, 7, 26, 23, 23, 22, 21, 20, 18, 17, 17, 12, 10, 9, 8, 8, 6, 5, 4, 4, 25, 23, 19, 16, 13, 11, 9, 6, 4, 26, 20, 18, 15, 12, 10, 7, 6, 3, 9, 8, 7, 7, 6, 5, 5, 4, 3, 20, 20, 18, 17, 15, 14, 12, 9, 8, 18, 17, 16, 16, 15, 13, 13, 11, 11, 14, 12, 12, 11, 9, 9, 7, 6, 6, 24, 23, 19, 17, 14, 12, 12, 7, 5, 16, 16, 16, 16, 15, 15, 15, 15, 15, 19, 15, 14, 11, 11, 8, 6, 5, 4, 26, 26, 26, 26, 25, 25, 25, 25, 25, 4, 3, 3, 3, 3, 2, 2, 2, 2, 17, 17, 13, 12, 10, 10, 8, 5, 3, 12, 12, 11, 10, 9, 8, 7, 6, 5, 20, 18, 18, 16, 15, 14, 13, 13, 11, 10, 10, 10, 10, 10, 10, 10, 10, 10, 18, 17, 17, 16, 15, 14, 13, 12, 12, 15, 14, 14, 13, 12, 12, 12, 11, 10, 25, 24, 22, 22, 18, 18, 15, 15, 13, 18, 17, 14, 12, 11, 10, 9, 6, 5, 8, 8, 8, 8, 8, 8, 8, 8, 8, 24, 22, 22, 21, 21, 20, 20, 19, 19, 17, 15, 13, 12, 11, 9, 8, 6, 5, 11, 11, 11, 11, 11, 10, 10, 10, 10, 19, 18, 17, 16, 13, 12, 11, 11, 9, 26, 23, 21, 18, 18, 15, 12, 12, 9, 20, 20, 19, 16, 15, 15, 13, 12, 10, 24, 23, 23, 23, 21, 21, 21, 19, 19, 25, 24, 23, 22, 21, 21, 20, 19, 18, 21, 21, 21, 20, 19, 19, 18, 18, 18, 17, 14, 13, 10, 9, 9, 7, 6, 3, 19, 19, 18, 17, 16, 16, 14, 14, 13, 17, 16, 14, 14, 11, 10, 8, 7, 6, 6, 6, 6, 6, 5, 5, 5, 5, 5, 22, 19, 18, 14, 13, 12, 8, 7, 5, 25, 24, 23, 23, 20, 20, 18, 18, 16, 18, 17, 16, 15, 14, 14, 14, 12, 12, 28, 26, 25, 25, 22, 22, 21, 18, 17, 25, 22, 22, 17, 17, 12, 9, 8, 5, 12, 12, 12, 12, 11, 11, 11, 10, 10, 16, 16, 16, 16, 16, 16, 16, 16, 16, 9, 9, 8, 8, 8, 7, 6, 6, 6, 22, 20, 18, 16, 15, 15, 14, 12, 11, 17, 16, 15, 15, 12, 11, 11, 10, 8, 10, 8, 8, 7, 6, 6, 5, 4, 4, 27, 22, 20, 16, 15, 12, 10, 8, 5, 25, 24, 21, 20, 19, 17, 15, 12, 9, 14, 13, 13, 12, 12, 11, 10, 10, 10, 17, 16, 16, 16, 15, 15, 15, 15, 15, 27, 27, 22, 20, 18, 17, 15, 12, 9, 27, 23, 22, 19, 17, 14, 9, 8, 6, 21, 20, 20, 19, 19, 19, 19, 18, 18, 22, 19, 17, 16, 15, 14, 11, 9, 8, 19, 16, 15, 13, 11, 11, 8, 7, 7, 28, 27, 27, 27, 25, 25, 25, 23, 23, 29, 27, 27, 27, 26, 26, 25, 24, 24, 24, 23, 22, 22, 21, 20, 19, 18, 16, 19, 18, 17, 17, 16, 16, 15, 15, 14, 23, 22, 22, 22, 21, 21, 20, 20, 19, 16, 14, 13, 11, 9, 9, 7, 6, 4, 24, 24, 24, 24, 23, 23, 23, 22, 22, 26, 25, 25, 25, 24, 23, 23, 23, 22, 19, 18, 18, 16, 15, 12, 11, 10, 9
 |15, 13, 12, 11, 11, 9, 7, 6, 6, 28, 27, 27, 27, 26, 26, 26, 26, 26, 25, 25, 23, 19, 18, 18, 14, 12, 12, 19, 19, 19, 19, 19, 19, 19, 19, 19, 23, 22, 22, 22, 21, 21, 21, 21, 21, 20, 19, 19, 19, 18, 18, 18, 18, 18, 18, 16, 16, 13, 10, 9, 6, 4, 3, 18, 15, 14, 13, 10, 7, 6, 3, 2, 16, 15, 15, 14, 13, 13, 11, 10, 10, 29, 29, 29, 29, 29, 29, 29, 29, 29, 13, 12, 11, 9, 7, 7, 5, 3, 3, 14, 14, 13, 12, 12, 12, 11, 11, 10, 11, 10, 9, 8, 7, 7, 6, 4, 4, 13, 12, 10, 10, 9, 6, 4, 4, 3, 14, 13, 12, 10, 7, 7, 4, 3, 2, 25, 24, 24, 24, 24, 24, 24, 24, 24, 19, 18, 16, 15, 14, 13, 13, 12, 10, 23, 23, 22, 20, 20, 18, 18, 16, 15, 26, 26, 26, 25, 25, 25, 25, 24, 24, 20, 19, 19, 18, 16, 14, 13, 12, 11, 20, 19, 17, 16, 14, 13, 13, 10, 10, 16, 15, 14, 12, 11, 11, 10, 8, 6, 18, 16, 16, 15, 15, 14, 14, 13, 13, 7, 7, 5, 4, 4, 4, 2, 2, 1, 22, 18, 17, 16, 12, 11, 8, 8, 5, 25, 25, 25, 25, 24, 24, 24, 23, 23, 22, 21, 21, 19, 18, 17, 16, 15, 15, 30, 29, 29, 29, 28, 28, 28, 27, 27, 18, 16, 15, 13, 10, 10, 8, 5, 3, 27, 26, 25, 23, 22, 21, 20, 19, 19, 26, 23, 22, 19, 18, 16, 13, 11, 8, 30, 27, 25, 23, 21, 18, 16, 14, 10, 17, 16, 16, 15, 15, 15, 15, 14, 14, 6, 5, 4, 3, 3, 2, 2, 1, 1, 18, 17, 16, 15, 13, 11, 10, 9, 8, 20, 19, 18, 18, 17, 16, 16, 15, 15, 14, 12, 12, 12, 11, 10, 10, 10, 9, 20, 19, 17, 17, 15, 13, 12, 11, 10, 19, 17, 15, 14, 14, 12, 10, 9, 8, 9, 9, 9, 9, 9, 9, 9, 9, 9, 20, 20, 20, 20, 20, 20, 20, 20, 20, 24, 24, 22, 19, 17, 14, 13, 11, 10, 12, 10, 10, 9, 8, 7, 5, 5, 4, 25, 22, 20, 18, 18, 15, 15, 13, 11, 28, 27, 26, 25, 25, 24, 23, 21, 20, 30, 27, 26, 22, 20, 18, 16, 14, 14, 23, 21, 19, 17, 15, 14, 11, 9, 9, 26, 26, 26, 25, 25, 25, 24, 24, 24, 18, 15, 15, 12, 12, 11, 8, 8, 7, 20, 19, 18, 17, 17, 16, 16, 16, 15, 16, 15, 15, 15, 14, 14, 14, 14, 14, 22, 22, 20, 20, 19, 17, 16, 15, 14, 15, 14, 14, 13, 13, 13, 13, 12, 12, 26, 25, 23, 22, 22, 20, 20, 19, 18, 17, 15, 15, 14, 13, 12, 11, 10, 10, 29, 26, 26, 22, 22, 18, 17, 15, 13, 24, 24, 24, 24, 23, 23, 23, 22, 22, 15, 14, 14, 13, 13, 12, 12, 11, 11, 26, 25, 21, 19, 19, 15, 13, 13, 11, 15, 14, 13, 11, 9, 7, 6, 4, 3, 27, 25, 23, 22, 19, 18, 18, 15, 14, 22, 21, 21, 20, 19, 19, 19, 18, 17, 27, 24, 23, 23, 20, 19, 16, 15, 13, 20, 19, 17, 17, 14, 12, 12, 11, 9, 28, 25, 23, 22, 20, 18, 17, 16, 15, 17, 17, 14, 12, 11, 10, 9, 8, 6, 25, 24, 23, 19, 19, 15, 13, 12, 11, 18, 17, 16, 15, 12, 11, 8, 8, 6, 13, 13, 13, 13, 12, 12, 12, 12, 12, 28, 26, 26, 25, 25, 24, 24, 23, 23, 9, 8, 6, 6, 5, 4, 3, 2, 2, 16, 15, 14, 14, 14, 13, 12, 12, 12, 7, 6, 6, 6, 5, 5, 4, 4, 4, 8, 7, 6, 5, 4, 4, 3, 2, 1, 20, 19, 18, 18, 16, 15, 15, 14, 12, 5, 5, 5, 5, 5, 5, 5, 5, 5, 11, 9, 7, 6, 5, 4, 3, 2, 2, 11, 10, 8, 8, 6, 6, 4, 3, 3, 27, 23, 23, 19, 18, 16, 13, 13, 11, 26, 24, 21, 18, 16, 12, 9, 5, 5, 29, 23, 21, 19, 13, 10, 10, 6, 1, 14, 14, 14, 14, 13, 13, 12, 12, 12, 27, 25, 23, 21, 20, 18, 17, 16, 14, 21, 21, 17, 16, 15, 14, 11, 10, 7, 19, 16, 13, 12, 11, 9, 7, 4, 1, 20, 18, 18, 17, 16, 14, 14, 13, 12, 18, 17, 15, 14, 11, 8, 6, 5, 3, 8, 6, 6, 5, 4, 4, 4, 3, 2, 22, 22, 21, 20, 19, 19, 19, 18, 17, 28, 26, 26, 25, 23, 22, 21, 20, 20, 24, 22, 21, 18, 16, 14, 13, 11, 9, 24, 22, 19, 17, 15, 14, 14, 10, 10, 27, 22, 22, 16, 14, 10, 7, 5, 4, 26, 26, 26, 26, 25, 25, 25, 24, 24, 24, 23, 23, 23, 22, 22, 22, 22, 22, 22, 22, 20, 16, 15, 10, 7, 5, 5, 15, 14, 13, 13, 12, 12, 12, 11, 11, 20, 19, 18, 18, 17, 17, 16, 15, 14, 19, 16, 14, 12, 10, 8, 7, 4, 3, 18, 16, 16, 15, 14, 13, 12, 12, 11
 |25, 23, 22, 17, 14, 11, 9, 4, 2, 21, 20, 19, 19, 18, 17, 16, 15, 13, 20, 17, 16, 13, 12, 9, 8, 7, 5, 28, 27, 26, 24, 23, 20, 18, 16, 16, 15, 13, 12, 11, 11, 10, 8, 8, 6, 24, 23, 21, 20, 20, 19, 17, 16, 15, 19, 18, 17, 15, 14, 12, 11, 9, 8, 20, 20, 18, 17, 16, 16, 14, 14, 12, 19, 16, 15, 13, 13, 11, 11, 8, 8, 21, 20, 18, 17, 16, 16, 15, 13, 13, 26, 22, 21, 17, 15, 15, 11, 9, 8, 11, 11, 11, 11, 11, 11, 11, 11, 11, 16, 15, 14, 14, 12, 12, 10, 10, 9, 12, 12, 12, 11, 10, 10, 10, 9, 9, 29, 29, 28, 27, 26, 25, 24, 24, 23, 30, 27, 21, 18, 18, 12, 9, 9, 4, 17, 15, 13, 13, 11, 10, 7, 6, 4, 27, 25, 25, 24, 22, 21, 21, 19, 19, 27, 25, 21, 20, 17, 14, 13, 9, 6, 11, 10, 9, 9, 9, 8, 7, 7, 7, 17, 16, 15, 15, 13, 13, 13, 11, 11, 26, 21, 19, 18, 17, 13, 12, 10, 7, 30, 29, 29, 29, 29, 29, 29, 29, 29, 25, 25, 23, 22, 20, 19, 18, 17, 16, 27, 25, 23, 21, 19, 17, 16, 14, 10, 11, 10, 9, 9, 8, 8, 6, 5, 5, 18, 17, 16, 16, 15, 14, 14, 14, 13, 23, 23, 23, 23, 22, 22, 22, 21, 21, 24, 23, 22, 21, 21, 20, 19, 19, 18, 4, 3, 3, 2, 2, 2, 2, 1, 1, 27, 27, 25, 23, 22, 19, 18, 18, 16, 21, 18, 18, 14, 14, 11, 9, 6, 5, 25, 21, 20, 18, 13, 13, 10, 6, 2, 23, 18, 17, 16, 11, 9, 7, 5, 5, 17, 17, 16, 15, 14, 13, 13, 12, 11, 25, 24, 23, 21, 21, 20, 18, 17, 17, 23, 22, 21, 18, 17, 16, 15, 14, 11, 30, 29, 29, 29, 29, 29, 29, 29, 29, 28, 25, 22, 19, 18, 16, 14, 9, 7, 27, 26, 24, 24, 21, 21, 19, 19, 18, 19, 19, 17, 15, 11, 11, 7, 6, 5, 27, 27, 27, 27, 27, 26, 26, 26, 26, 14, 13, 13, 12, 11, 10, 9, 7, 7, 22, 22, 21, 21, 21, 20, 19, 19, 19, 25, 21, 19, 17, 15, 14, 11, 10, 9, 3, 2, 2, 2, 1, 1, 1, 1, 1, 18, 18, 16, 16, 15, 15, 14, 13, 12, 12, 11, 10, 9, 9, 8, 7, 6, 6, 29, 28, 27, 26, 25, 22, 21, 21, 20, 21, 21, 21, 21, 21, 21, 21, 21, 21, 16, 16, 16, 16, 15, 15, 15, 15, 15, 25, 24, 24, 24, 24, 23, 23, 23, 23, 29, 25, 24, 21, 20, 18, 16, 14, 14, 21, 20, 19, 17, 15, 12, 9, 8, 4, 24, 23, 19, 16, 14, 11, 10, 6, 5, 13, 11, 10, 10, 9, 7, 6, 6, 4, 14, 14, 14, 13, 13, 12, 12, 11, 11, 29, 26, 23, 19, 17, 13, 11, 8, 6, 21, 20, 17, 15, 15, 13, 10, 8, 5, 13, 12, 12, 12, 12, 11, 11, 11, 11, 21, 19, 17, 15, 14, 11, 8, 7, 6, 5, 5, 4, 3, 3, 3, 2, 2, 1, 15, 13, 13, 11, 9, 8, 5, 3, 2, 13, 13, 13, 13, 12, 12, 12, 11, 11, 23, 22, 22, 21, 21, 21, 20, 20, 20, 9, 8, 8, 8, 7, 7, 7, 7, 7, 16, 15, 14, 14, 12, 12, 11, 10, 10, 22, 20, 17, 16, 14, 14, 12, 9, 8, 6, 5, 5, 4, 4, 4, 3, 3, 3, 11, 11, 11, 11, 11, 11, 11, 11, 11, 26, 26, 24, 22, 21, 18, 17, 16, 15, 23, 20, 20, 18, 17, 16, 16, 14, 14, 21, 20, 18, 15, 15, 12, 11, 8, 6, 27, 23, 19, 17, 13, 11, 7, 5, 1, 8, 8, 8, 8, 8, 8, 8, 8, 8, 24, 23, 21, 18, 16, 15, 14, 12, 10, 21, 20, 20, 18, 18, 17, 15, 15, 14, 14, 13, 10, 9, 7, 6, 5, 3, 2, 24, 22, 18, 15, 13, 13, 8, 6, 3, 22, 19, 16, 16, 13, 12, 8, 8, 6, 21, 19, 19, 16, 16, 14, 13, 12, 9, 9, 8, 7, 7, 6, 6, 6, 5, 5, 25, 22, 22, 17, 15, 12, 11, 9, 5, 8, 8, 8, 8, 7, 7, 6, 6, 6, 29, 28, 28, 27, 27, 27, 26, 26, 26, 7, 7, 7, 7, 6, 6, 5, 5, 5, 9, 8, 7, 6, 5, 5, 3, 3, 2, 24, 23, 23, 23, 21, 21, 21, 19, 19, 6, 5, 5, 5, 5, 4, 4, 4, 4, 18, 18, 16, 15, 14, 13, 11, 11, 9, 15, 15, 15, 15, 15, 15, 15, 15, 15, 19, 19, 19, 19, 18, 18, 17, 17, 17, 29, 28, 28, 27, 26, 24, 23, 23, 22, 19, 19, 18, 17, 16, 15, 15, 14, 13, 13, 12, 12, 11, 11, 10, 10, 9, 9, 26, 26, 26, 25, 25, 25, 24, 24, 24, 10, 10, 10, 10, 9, 9, 9, 9, 9, 21, 19, 19, 19, 18, 18, 17, 17, 16, 21, 21, 19, 19, 16, 16, 14, 14, 12, 25, 24, 23, 23, 21, 20, 19, 17, 17
 |24, 23, 22, 22, 21, 20, 19, 18, 18, 25, 25, 21, 20, 19, 16, 16, 14, 11, 24, 22, 21, 19, 18, 17, 16, 14, 12, 24, 23, 19, 19, 16, 15, 13, 10, 8, 15, 14, 14, 12, 11, 9, 8, 7, 5, 11, 11, 11, 11, 10, 10, 10, 10, 10, 25, 22, 22, 21, 19, 18, 16, 15, 14, 27, 26, 23, 21, 20, 20, 17, 17, 14, 17, 16, 16, 15, 13, 12, 12, 11, 10, 13, 13, 13, 13, 13, 13, 13, 13, 13, 27, 24, 23, 20, 19, 17, 16, 13, 12, 23, 22, 21, 19, 18, 18, 17, 16, 16, 8, 7, 6, 6, 5, 5, 4, 4, 4, 7, 7, 7, 7, 7, 7, 7, 7, 7, 21, 20, 19, 18, 15, 13, 11, 10, 9, 3, 3, 3, 3, 2, 2, 2, 2, 2, 25, 23, 22, 22, 19, 17, 16, 14, 13, 7, 5, 5, 5, 4, 3, 3, 1, 1, 15, 13, 12, 11, 11, 11, 9, 9, 8, 7, 6, 6, 5, 5, 5, 4, 4, 3, 30, 29, 29, 28, 28, 27, 27, 26, 26, 27, 26, 24, 23, 23, 21, 20, 20, 18, 24, 24, 23, 21, 20, 20, 18, 18, 16, 27, 21, 21, 17, 14, 13, 11, 9, 5, 24, 19, 19, 15, 13, 10, 7, 4, 3, 12, 12, 12, 12, 12, 12, 12, 12, 12, 13, 12, 12, 11, 11, 10, 10, 9, 9, 24, 24, 21, 20, 19, 16, 16, 15, 12, 13, 12, 12, 12, 11, 11, 11, 10, 10, 15, 14, 13, 12, 12, 11, 11, 9, 9, 8, 7, 6, 4, 4, 3, 3, 2, 1, 25, 24, 23, 22, 22, 22, 21, 21, 20, 14, 14, 14, 14, 13, 13, 12, 12, 12, 15, 14, 14, 14, 13, 13, 13, 12, 11, 9, 8, 8, 8, 7, 6, 6, 5, 5, 21, 20, 19, 18, 17, 16, 16, 15, 14, 16, 15, 13, 13, 11, 8, 8, 6, 3, 18, 16, 16, 14, 12, 12, 10, 8, 7, 18, 18, 18, 17, 17, 17, 16, 16, 16, 24, 23, 23, 23, 22, 22, 22, 21, 21, 15, 15, 15, 15, 14, 14, 13, 13, 13, 28, 25, 21, 18, 13, 10, 10, 6, 3, 6, 4, 4, 3, 3, 2, 2, 1, 1, 26, 23, 23, 22, 19, 19, 16, 16, 15, 22, 21, 21, 20, 19, 18, 17, 17, 16, 30, 27, 26, 26, 25, 24, 22, 21, 20, 11, 11, 10, 10, 8, 8, 8, 7, 6, 26, 26, 26, 26, 25, 25, 25, 25, 24, 11, 11, 11, 11, 11, 11, 11, 11, 11, 29, 28, 27, 27, 25, 25, 23, 22, 22, 28, 26, 24, 23, 22, 21, 19, 18, 17, 11, 10, 10, 9, 9, 9, 9, 8, 8, 29, 26, 23, 22, 17, 15, 11, 11, 8, 7, 7, 7, 7, 6, 6, 5, 5, 5, 25, 23, 23, 23, 22, 22, 21, 20, 20, 23, 22, 22, 21, 21, 20, 20, 19, 19, 6, 6, 6, 6, 5, 5, 4, 4, 4, 25, 23, 22, 21, 21, 20, 18, 17, 17, 2, 2, 2, 2, 2, 2, 2, 2, 2, 25, 24, 24, 23, 23, 22, 22, 22, 21, 19, 19, 19, 19, 19, 19, 19, 19, 19, 3, 2, 2, 2, 2, 2, 2, 2, 2, 22, 20, 17, 17, 15, 13, 11, 10, 10, 15, 13, 12, 12, 10, 9, 7, 5, 5, 28, 27, 26, 24, 23, 23, 22, 21, 20, 18, 16, 16, 14, 12, 7, 6, 4, 2, 26, 22, 19, 18, 16, 13, 9, 9, 5, 16, 16, 15, 14, 14, 13, 13, 12, 12, 17, 15, 13, 12, 10, 8, 5, 4, 1, 13, 13, 13, 13, 12, 12, 11, 11, 11, 23, 22, 20, 17, 17, 13, 13, 9, 7, 29, 26, 23, 17, 17, 12, 10, 7, 4, 21, 20, 19, 18, 17, 16, 15, 14, 14, 22, 21, 17, 17, 13, 11, 11, 9, 6, 19, 15, 14, 11, 11, 10, 6, 4, 4, 30, 27, 22, 18, 17, 13, 10, 9, 6, 9, 9, 9, 8, 8, 8, 8, 7, 7, 22, 22, 18, 16, 15, 12, 10, 7, 6, 27, 26, 22, 20, 17, 17, 15, 12, 11, 13, 12, 12, 12, 11, 11, 11, 11, 11, 21, 20, 17, 17, 16, 13, 13, 10, 9, 25, 23, 21, 16, 15, 11, 10, 4, 2, 23, 23, 21, 20, 20, 19, 17, 16, 16, 27, 27, 25, 25, 23, 22, 21, 19, 18, 11, 10, 9, 9, 8, 7, 5, 5, 4, 20, 20, 18, 17, 15, 14, 13, 13, 11, 22, 21, 17, 16, 13, 12, 10, 7, 6, 22, 21, 20, 19, 18, 18, 17, 16, 15, 24, 22, 21, 20, 18, 16, 12, 12, 10, 22, 21, 21, 19, 18, 17, 16, 15, 15, 18, 18, 16, 15, 15, 13, 13, 11, 10, 26, 25, 25, 23, 23, 22, 20, 20, 19, 13, 11, 10, 10, 9, 7, 7, 6, 4, 19, 18, 18, 17, 17, 17, 17, 16, 16, 26, 25, 25, 24, 24, 23, 23, 22, 22, 21, 19, 18, 16, 14, 14, 13, 12, 10, 17, 17, 16, 15, 14, 13, 14, 12, 12, 26, 22, 21, 18, 15, 14, 11, 10, 9, 29, 27, 27, 26, 24, 24, 22, 22, 21, 21, 19, 18, 16, 13, 12, 10, 8, 6|];